StringID   Type       x          y          demand     ReadyTime  DueDate    ServiceTime
D0         d              79.986    31.085      0.000      0.000     23.983      0.000
S0         f              79.986    31.085      0.000      0.000     23.983      0.000
S1         f              73.390     3.470      0.000      0.000     23.983      0.000
S2         f              12.190    33.160      0.000      0.000     23.983      0.000
C0         c              87.478    49.430      0.071      8.653      9.243      0.086
C1         c              14.766    19.301      0.039     15.524     16.012      0.069
C2         c               7.344    63.562      0.005     17.511     18.035      0.053
C3         c              21.870    34.609      0.083     11.765     12.330      0.091
C4         c              72.265    73.288      0.032     14.359     14.917      0.066

Q Vehicle fuel tank capacity /130.1600/
C Vehicle load capacity /1.0700/
r fuel consumption rate /0.4758/
g inverse refueling rate /0.0080/
v average Velocity /37.8800/
gv charging speed /124.6400/

--------------------
instance_id /305/
number of clusters /6/
working_startTime (hour) /8.00/
working_endTime (hour) /20.05/
instance_endTime (hour) /23.98/
service_time_type /cargoweight/
demand_type /random/
instance_type /R/
instance x range /[0.0, 100.0]/
instance y range /[0.0, 100.0]/
cs_time_to_depot (hour)/[0.749520062468883,1.7905952174529236]/
